NAME: ACTUAL_TOURS/amz1598
TYPE: TOUR
COMMENT: RouteID_ab95258e-dfae-450d-9d06-3ea61f7d38e2
DIMENSION: 130
TOUR_SECTION
80
19
124
3
48
47
9
114
16
38
107
89
22
125
94
35
118
101
32
87
37
78
79
109
83
100
17
104
65
110
130
44
71
115
127
34
49
60
96
62
14
57
81
7
2
4
77
30
88
103
91
85
111
52
20
24
51
123
108
75
116
126
63
39
112
113
13
117
28
54
102
29
15
46
12
121
95
5
105
53
18
68
56
74
59
40
26
128
11
58
69
120
50
27
97
84
41
67
6
73
122
8
90
76
21
70
36
42
23
33
43
10
93
119
1
66
82
129
25
86
61
92
55
106
98
45
72
64
31
99
-1
EOF
